/*********************************************
 * OPL 12.6.3.0 Data
 * Author: wolodija
 * Creation Date: 12-12-2016 at 21:05:32
 *********************************************/

m = 3;
p = 2;
n = 1;

S_set = [{1}, {3}];
S = [1, 3];

D_set = [{3}, {1}];
D = [3, 1];

costs = [
	[99999999, 1, 99999999],
	[1, 99999999, 1],
	[99999999, 1, 99999999]
];

cost_of_purchasing = [
	[0],
	[1],
	[0]
];

demands = [
	[1]
];

q = [
	[0],
	[5],
	[0]
];

K = [
	{1},
	{1}
];

O = [
	[1, 1]
];